(set-logic QF_NRA)
(declare-fun skoX () Real)
(declare-fun skoY () Real)
(declare-fun skoZ () Real)
(assert (and (not (<= (* (- 1) skoX) 0)) (and (not (<= (* (- 1) (* skoX skoX)) 3)) (and (not (<= (+ (* 12 skoZ) (* skoX skoX) (* (- 3) (* skoX skoY)) (* 4 (* skoX skoX skoX)) (* 4 (* skoX skoX skoZ)) (* (- 12) (* skoX skoY skoZ)) (* 12 (* skoX skoX skoY)) (* 12 (* skoX skoY skoY)) (* (- 1) (* skoX skoX skoX skoY)) (* (- 4) (* skoX skoX skoX skoY skoZ)) (* 4 (* skoX skoX skoX skoY skoY))) (- 3))) (and (not (<= skoZ 0)) (and (not (<= skoX (- 1))) (and (not (<= (* (- 1) skoY) (- 1))) (not (<= (+ (* (- 1) skoX) skoY) 0)))))))))
(set-info :status unsat)
(check-sat)
